Problem
 small
Maximize
 obj:   x1 +  x2 +  x3 +  x4 +  x5 +  x6 +  x7 +  x8 +  x9 +  x10 +  x11 +  x12 +  x13 +  x14 +  x15 +  x16 +  x17 +  x18 +  x19 +  x20 +  x21 +  x22 +  x23 +  x24 +  x25 +  x26 +  x27 +  x28 +  x29 +  x30 +  x31 +  x32 +  x33 +  x34 +  x35 +  x36 +  x37 +  x38 +
        x39 +  x40 +  x41 +  x42 +  x43 +  x44 +  x45 +  x46 +  x47 +  x48 +  x49 +  x50 +  x51 +  x52 +  x53 +  x54 +  x55 +  x56 +  x57 +  x58 +  x59 +  x60 +  x61 +  x62 +  x63 +  x64 +  x65 +  x66 +  x67
Subject To
 c1:  -  x11 +  x17 = 0
 c2:  -  x19 +  x25 = 0
 c3:  -  x35 +  x41 = 0
 c4:  -  x27 +  x34 = 0
 c5:  -  x43 +  x50 = 0
 c6:  -  x51 +  x58 = 0
 c7:  -  x10 +  x18 = 0
 c8:  -  x10 +  x26 = 0
 c9:  -  x10 +  x42 = 0
 c10:   x4 +  x5 +  x6 -  x10 = 0
 c11:  -  x1 +  x11 +  x67 <= 0
 c12:  -  x2 +  x19 +  x67 <= 0
 c13:  -  x3 +  x35 +  x67 <= 0
 c14:   x65 -  x66 = 0
 c15:   x64 -  x66 = 0
 c16:   x62 -  x66 = 0
 c17:   x50 -  x66 = 0
 c18:   x34 -  x66 = 0
 c19:  -  x4 -  x5 +  x7 = 0
 c20:   x39 -  x40 -  x41 +  x42 = 0
 c21:   x23 -  x24 -  x25 +  x26 = 0
 c22:   x15 -  x16 -  x17 +  x18 = 0
 c23:   x63 -  x64 -  x65 +  x66 = 0
 c24:  -  x4 -  x6 +  x8 = 0
 c25:   x35 -  x36 -  x39 +  x40 = 0
 c26:   x19 -  x20 -  x23 +  x24 = 0
 c27:   x11 -  x12 -  x15 +  x16 = 0
 c28:   x5 -  x7 -  x9 +  x10 = 0
 c29:   x61 -  x62 -  x65 +  x66 = 0
 c30:   x33 -  x34 -  x65 +  x66 = 0
 c31:  -  x5 -  x6 +  x9 = 0
 c32:   x59 -  x61 -  x63 +  x65 = 0
 c33:   x4 -  x7 -  x8 +  x10 = 0
 c34:   x60 -  x62 -  x64 +  x66 = 0
 c35:   x51 -  x53 -  x59 +  x61 = 0
 c36:   x52 -  x54 -  x60 +  x62 = 0
 c37:   x56 -  x58 -  x64 +  x66 = 0
 c38:   x35 -  x37 -  x51 +  x53 = 0
 c39:   x47 -  x49 -  x63 +  x65 = 0
 c40:   x36 -  x38 -  x52 +  x54 = 0
 c41:   x48 -  x50 -  x64 +  x66 = 0
 c42:   x19 -  x21 -  x51 +  x53 = 0
 c43:   x11 -  x13 -  x43 +  x45 = 0
 c44:   x31 -  x33 -  x63 +  x65 = 0
 c45:   x20 -  x22 -  x52 +  x54 = 0
 c46:   x12 -  x14 -  x44 +  x46 = 0
 c47:   x32 -  x34 -  x64 +  x66 = 0
 c48:   x51 -  x55 -  x59 +  x63 = 0
 c49:   x37 -  x41 -  x45 +  x49 = 0
 c50:   x53 -  x57 -  x61 +  x65 = 0
 c51:   x54 -  x58 -  x62 +  x66 = 0
 c52:   x43 -  x47 -  x59 +  x63 = 0
 c53:   x13 -  x17 -  x29 +  x33 = 0
 c54:   x36 -  x40 -  x52 +  x56 = 0
 c55:   x44 -  x48 -  x60 +  x64 = 0
 c56:   x46 -  x50 -  x62 +  x66 = 0
 c57:   x19 -  x23 -  x51 +  x55 = 0
 c58:   x27 -  x31 -  x59 +  x63 = 0
 c59:   x21 -  x25 -  x53 +  x57 = 0
 c60:   x29 -  x33 -  x61 +  x65 = 0
 c61:   x12 -  x16 -  x44 +  x48 = 0
 c62:   x28 -  x32 -  x60 +  x64 = 0
 c63:   x30 -  x34 -  x62 +  x66 = 0
 c64:   x9 -  x17 -  x25 +  x33 +  x67 <= 0
 c65:   x41 -  x49 -  x57 +  x65 +  x67 <= 0
 c66:   x40 -  x48 -  x56 +  x64 = 0
 c67:   x38 -  x46 -  x54 +  x62 = 0
 c68:   x9 -  x17 -  x41 +  x49 +  x67 <= 0
 c69:   x25 -  x33 -  x57 +  x65 +  x67 <= 0
 c70:   x24 -  x32 -  x56 +  x64 = 0
 c71:   x22 -  x30 -  x54 +  x62 = 0
 c72:   x10 -  x18 -  x42 +  x50 = 0
 c73:   x9 -  x25 -  x41 +  x57 +  x67 <= 0
 c74:   x17 -  x33 -  x49 +  x65 +  x67 <= 0
 c75:   x12 -  x28 -  x44 +  x60 = 0
 c76:   x8 -  x24 -  x40 +  x56 +  x67 <= 0
 c77:   x16 -  x32 -  x48 +  x64 = 0
 c78:   x7 -  x22 -  x38 +  x54 +  x67 <= 0
 c79:   x14 -  x30 -  x46 +  x62 = 0
 c80:   x10 -  x26 -  x42 +  x58 = 0
 c81:   x1 +  x2 +  x3 +  x4 +  x5 +  x6 +  x67 <= 1
 c82:   x67 <= 1
Bounds
 x1 free
 x2 free
 x3 free
 x4 free
 x5 free
 x6 free
 x7 free
 x8 free
 x9 free
 x10 free
 x11 free
 x12 free
 x13 free
 x14 free
 x15 free
 x16 free
 x17 free
 x18 free
 x19 free
 x20 free
 x21 free
 x22 free
 x23 free
 x24 free
 x25 free
 x26 free
 x27 free
 x28 free
 x29 free
 x30 free
 x31 free
 x32 free
 x33 free
 x34 free
 x35 free
 x36 free
 x37 free
 x38 free
 x39 free
 x40 free
 x41 free
 x42 free
 x43 free
 x44 free
 x45 free
 x46 free
 x47 free
 x48 free
 x49 free
 x50 free
 x51 free
 x52 free
 x53 free
 x54 free
 x55 free
 x56 free
 x57 free
 x58 free
 x59 free
 x60 free
 x61 free
 x62 free
 x63 free
 x64 free
 x65 free
 x66 free
 x67 free
End
